Traveling Salesman Problem/TSP_generados/Aleatorio1621103356_11.tsp
NAME: Aleatorio1621103356_11.tsp
COMMENT: Randomly generated scenario
TYPE: TSP
DIMENSION: 11
EDGE_WEIGHT_TYPE: ATT
NODE_COORD_SECTION
1 25.9 46.33
2 38.72 19.75
3 6.25 8.71
4 39.27 45.33
5 19.35 46.56
6 48.24 39.09
7 31.69 37.62
8 10.65 31.42
9 26.18 14.79
10 20.17 6.19
11 23.59 8.56
