Traveling Salesman Problem/TSP_generados/Aleatorio1621103356_11.opt.tour
NAME: Aleatorio1621103356_11.opt.tour
COMMENT: Optimal solution for Aleatorio1621103356_11 (139.44143556949504)
TYPE: TOUR
DIMENSION: 11
TOUR_SECTION
1 5 8 3 10 11 9 2 6 4 7
-1
EOF
